\ENCODING=ISO-8859-1
\Problem name: master_0

Minimize
 obj1: - 7 y(1)_0_OmastV___#0 - 5 y(2)_1_OmastV___#1 - 24 y(3)_2_OmastV___#2
       - 3 y(4)_3_OmastV___#3 - 23 y(5)_4_OmastV___#4
Subject To
 convU1_0_OmastC_#0: MC175___________#5 + MC176___________#6
                     + MC177___________#7 + MC178___________#8
                     + MC179___________#9 + MC180___________#10
                     + MC181___________#11 + MC182___________#12
                     + MC183___________#13 + MC184___________#14
                     + MC185___________#15 + MC186___________#16
                     + MC187___________#17 + MC188___________#18
                     + MC189___________#19 + MC190___________#20
                     + MC191___________#21 + MC192___________#22
                     + MC193___________#23 + MC194___________#24
                     + MC195___________#25 + MC196___________#26
                     + MC197___________#27 + MC198___________#28
                     + MC199___________#29 + MC200___________#30
                     + MC201___________#31 + MC202___________#32
                     + MC203___________#33 + MC204___________#34
                     + MC205___________#35 + MC206___________#36
                     + MC221___________#37 <= 2
 deg(1)_0_OmastC_#1: - y(1)_0_OmastV___#0 + MC175___________#5
                     + MC176___________#6 + MC177___________#7
                     + MC178___________#8 + MC182___________#12
                     + MC183___________#13 + MC184___________#14
                     + MC185___________#15 + MC186___________#16
                     + MC187___________#17 + MC188___________#18
                     + MC191___________#21 + MC194___________#24
                     + MC197___________#27 + MC198___________#28
                     + MC199___________#29 + MC200___________#30
                     + MC201___________#31 + MC206___________#36
                     + MC221___________#37  = 0
 deg(2)_1_OmastC_#2: - y(2)_1_OmastV___#1 + MC175___________#5
                     + MC176___________#6 + MC177___________#7
                     + MC178___________#8 + MC179___________#9
                     + MC180___________#10 + MC181___________#11
                     + MC182___________#12 + MC183___________#13
                     + MC185___________#15 + MC186___________#16
                     + MC187___________#17 + MC190___________#20
                     + MC192___________#22 + MC194___________#24
                     + MC195___________#25 + MC196___________#26
                     + MC197___________#27 + MC202___________#32  = 0
 deg(3)_2_OmastC_#3: - y(3)_2_OmastV___#2 + MC179___________#9
                     + MC180___________#10 + MC183___________#13
                     + MC184___________#14 + MC189___________#19
                     + MC195___________#25 + MC198___________#28
                     + MC203___________#33  = 0
 deg(4)_3_OmastC_#4: - y(4)_3_OmastV___#3 + MC175___________#5
                     + MC176___________#6 + MC178___________#8
                     + MC179___________#9 + MC180___________#10
                     + MC181___________#11 + MC182___________#12
                     + MC184___________#14 + MC185___________#15
                     + MC186___________#16 + MC188___________#18
                     + MC189___________#19 + MC190___________#20
                     + MC191___________#21 + MC192___________#22
                     + MC193___________#23 + MC199___________#29
                     + MC204___________#34 + MC221___________#37  = 0
 deg(5)_4_OmastC_#5: - y(5)_4_OmastV___#4 + MC175___________#5
                     + MC176___________#6 + MC177___________#7
                     + MC181___________#11 + MC187___________#17
                     + MC188___________#18 + MC193___________#23
                     + MC196___________#26 + MC200___________#30
                     + MC205___________#35 + MC206___________#36
                     + MC221___________#37  = 0
Bounds
 0 <= y(1)_0_OmastV___#0 <= 1
 0 <= y(2)_1_OmastV___#1 <= 1
 0 <= y(3)_2_OmastV___#2 <= 1
 0 <= y(4)_3_OmastV___#3 <= 1
 0 <= y(5)_4_OmastV___#4 <= 1
 0 <= MC175___________#5 <= 1000000000000
 0 <= MC176___________#6 <= 1000000000000
 0 <= MC177___________#7 <= 1000000000000
 0 <= MC178___________#8 <= 1000000000000
 0 <= MC179___________#9 <= 1000000000000
 0 <= MC180___________#10 <= 1000000000000
 0 <= MC181___________#11 <= 1000000000000
 0 <= MC182___________#12 <= 1000000000000
 0 <= MC183___________#13 <= 1000000000000
 0 <= MC184___________#14 <= 1000000000000
 0 <= MC185___________#15 <= 1000000000000
 0 <= MC186___________#16 <= 1000000000000
 0 <= MC187___________#17 <= 1000000000000
 0 <= MC188___________#18 <= 1000000000000
 0 <= MC189___________#19 <= 1000000000000
 0 <= MC190___________#20 <= 1000000000000
 0 <= MC191___________#21 <= 1000000000000
 0 <= MC192___________#22 <= 1000000000000
 0 <= MC193___________#23 <= 1000000000000
 0 <= MC194___________#24 <= 1000000000000
 0 <= MC195___________#25 <= 1000000000000
 0 <= MC196___________#26 <= 1000000000000
 0 <= MC197___________#27 <= 1000000000000
 0 <= MC198___________#28 <= 1000000000000
 0 <= MC199___________#29 <= 1000000000000
 0 <= MC200___________#30 <= 1000000000000
 0 <= MC201___________#31 <= 1000000000000
 0 <= MC202___________#32 <= 1000000000000
 0 <= MC203___________#33 <= 1000000000000
 0 <= MC204___________#34 <= 1000000000000
 0 <= MC205___________#35 <= 1000000000000
 0 <= MC206___________#36 <= 1000000000000
 0 <= MC221___________#37 <= 1000000000000
Generals
 MC175___________#5  MC176___________#6  MC177___________#7 
 MC178___________#8  MC179___________#9  MC180___________#10 
 MC181___________#11  MC182___________#12  MC183___________#13 
 MC184___________#14  MC185___________#15  MC186___________#16 
 MC187___________#17  MC188___________#18  MC189___________#19 
 MC190___________#20  MC191___________#21  MC192___________#22 
 MC193___________#23  MC194___________#24  MC195___________#25 
 MC196___________#26  MC197___________#27  MC198___________#28 
 MC199___________#29  MC200___________#30  MC201___________#31 
 MC202___________#32  MC203___________#33  MC204___________#34 
 MC205___________#35  MC206___________#36  MC221___________#37 
End
